p cnf 287 2042
140 147 187 278 0
52 166 271 0
49 160 161 172 0
118 129 135 217 0
99 102 112 153 222 0
95 116 168 226 0
45 82 228 231 235 0
136 163 177 182 237 239 0
40 124 131 185 0
35 106 241 243 0
120 138 139 158 186 0
88 94 133 142 148 0
156 167 179 190 246 0
150 157 174 250 0
29 32 79 127 132 170 0
76 110 149 0
73 75 97 114 0
70 71 85 89 100 0
67 69 162 175 181 0
130 183 184 0
62 63 64 66 0
55 58 61 104 108 0
53 119 0
50 51 0
48 164 0
46 113 0
43 44 84 144 0
39 41 42 0
37 57 59 0
34 122 123 0
92 137 141 0
33 155 188 0
26 28 30 192 0
77 111 194 0
115 195 196 0
72 86 198 199 0
200 202 0
65 203 204 205 0
105 206 207 0
117 208 209 210 0
165 211 0
212 213 215 0
103 154 216 0
218 219 0
96 269 280 0
91 146 152 223 0
178 224 225 227 0
38 60 229 232 236 0
36 238 240 0
121 125 0
143 189 242 244 0
81 159 245 0
27 193 247 0
151 173 249 251 0
253 255 256 0
68 74 176 201 0
-49 -52 0
-52 -217 0
-52 -257 0
-52 -260 0
-52 -228 0
-49 -217 0
-49 -257 0
-49 -260 0
-49 -228 0
-217 -257 0
-217 -260 0
-217 -228 0
-257 -260 0
-228 -257 0
-228 -260 0
-131 -230 0
-131 -241 0
-131 -186 0
-131 -174 0
-131 -170 0
-230 -241 0
-186 -230 0
-174 -230 0
-170 -230 0
-186 -241 0
-174 -241 0
-170 -241 0
-174 -186 0
-170 -186 0
-170 -174 0
-76 -97 0
-76 -197 0
-71 -76 0
-66 -76 0
-61 -76 0
-97 -197 0
-71 -97 0
-66 -97 0
-61 -97 0
-71 -197 0
-66 -197 0
-61 -197 0
-66 -71 0
-61 -71 0
-61 -66 0
-164 -214 0
-107 -164 0
-113 -164 0
-107 -214 0
-113 -214 0
-107 -113 0
-37 -261 0
-33 -261 0
-261 -262 0
-33 -37 0
-37 -262 0
-33 -262 0
-96 -146 0
-52 -131 0
-52 -76 0
-52 -96 0
-76 -131 0
-96 -131 0
-76 -96 0
-49 -230 0
-49 -97 0
-49 -146 0
-97 -230 0
-146 -230 0
-97 -146 0
-217 -241 0
-197 -217 0
-164 -217 0
-217 -261 0
-197 -241 0
-164 -241 0
-241 -261 0
-164 -197 0
-197 -261 0
-164 -261 0
-186 -257 0
-71 -257 0
-214 -257 0
-37 -257 0
-71 -186 0
-186 -214 0
-37 -186 0
-71 -214 0
-37 -71 0
-37 -214 0
-174 -260 0
-66 -260 0
-107 -260 0
-33 -260 0
-66 -174 0
-107 -174 0
-33 -174 0
-66 -107 0
-33 -66 0
-33 -107 0
-170 -228 0
-61 -228 0
-113 -228 0
-228 -262 0
-61 -170 0
-113 -170 0
-170 -262 0
-61 -113 0
-61 -262 0
-113 -262 0
-160 -187 0
-135 -187 0
-187 -263 0
-112 -187 0
-168 -187 0
-187 -231 0
-135 -160 0
-160 -263 0
-112 -160 0
-160 -168 0
-160 -231 0
-135 -263 0
-112 -135 0
-135 -168 0
-135 -231 0
-112 -263 0
-168 -263 0
-231 -263 0
-112 -168 0
-112 -231 0
-168 -231 0
-177 -234 0
-106 -177 0
-120 -177 0
-142 -177 0
-156 -177 0
-127 -177 0
-106 -234 0
-120 -234 0
-142 -234 0
-156 -234 0
-127 -234 0
-106 -120 0
-106 -142 0
-106 -156 0
-106 -127 0
-120 -142 0
-120 -156 0
-120 -127 0
-142 -156 0
-127 -142 0
-127 -156 0
-75 -264 0
-264 -265 0
-89 -264 0
-69 -264 0
-130 -264 0
-108 -264 0
-75 -265 0
-75 -89 0
-69 -75 0
-75 -130 0
-75 -108 0
-89 -265 0
-69 -265 0
-130 -265 0
-108 -265 0
-69 -89 0
-89 -130 0
-89 -108 0
-69 -130 0
-69 -108 0
-108 -130 0
-59 -266 0
-34 -266 0
-137 -266 0
-191 -266 0
-34 -59 0
-59 -137 0
-59 -191 0
-34 -137 0
-34 -191 0
-137 -191 0
-195 -267 0
-198 -267 0
-267 -268 0
-203 -267 0
-195 -198 0
-195 -268 0
-195 -203 0
-198 -268 0
-198 -203 0
-203 -268 0
-91 -218 0
-218 -224 0
-218 -259 0
-218 -229 0
-91 -224 0
-91 -259 0
-91 -229 0
-224 -259 0
-224 -229 0
-229 -259 0
-171 -242 0
-27 -242 0
-173 -242 0
-169 -242 0
-27 -171 0
-171 -173 0
-169 -171 0
-27 -173 0
-27 -169 0
-169 -173 0
-177 -187 0
-187 -264 0
-187 -218 0
-187 -242 0
-177 -264 0
-177 -218 0
-177 -242 0
-218 -264 0
-242 -264 0
-218 -242 0
-160 -234 0
-75 -160 0
-91 -160 0
-160 -171 0
-75 -234 0
-91 -234 0
-171 -234 0
-75 -91 0
-75 -171 0
-91 -171 0
-106 -135 0
-135 -265 0
-135 -266 0
-135 -267 0
-135 -224 0
-27 -135 0
-106 -265 0
-106 -266 0
-106 -267 0
-106 -224 0
-27 -106 0
-265 -266 0
-265 -267 0
-224 -265 0
-27 -265 0
-266 -267 0
-224 -266 0
-27 -266 0
-224 -267 0
-27 -267 0
-27 -224 0
-120 -263 0
-89 -263 0
-59 -263 0
-195 -263 0
-259 -263 0
-173 -263 0
-89 -120 0
-59 -120 0
-120 -195 0
-120 -259 0
-120 -173 0
-59 -89 0
-89 -195 0
-89 -259 0
-89 -173 0
-59 -195 0
-59 -259 0
-59 -173 0
-195 -259 0
-173 -195 0
-173 -259 0
-112 -142 0
-69 -112 0
-34 -112 0
-112 -198 0
-112 -229 0
-112 -169 0
-69 -142 0
-34 -142 0
-142 -198 0
-142 -229 0
-142 -169 0
-34 -69 0
-69 -198 0
-69 -229 0
-69 -169 0
-34 -198 0
-34 -229 0
-34 -169 0
-198 -229 0
-169 -198 0
-169 -229 0
-156 -168 0
-130 -168 0
-137 -168 0
-168 -268 0
-130 -156 0
-137 -156 0
-156 -268 0
-130 -137 0
-130 -268 0
-137 -268 0
-127 -231 0
-108 -231 0
-191 -231 0
-203 -231 0
-108 -127 0
-127 -191 0
-127 -203 0
-108 -191 0
-108 -203 0
-191 -203 0
-271 -278 0
-270 -278 0
-153 -278 0
-47 -278 0
-45 -278 0
-270 -271 0
-153 -271 0
-47 -271 0
-45 -271 0
-153 -270 0
-47 -270 0
-45 -270 0
-47 -153 0
-45 -153 0
-45 -47 0
-124 -237 0
-158 -237 0
-133 -237 0
-157 -237 0
-132 -237 0
-124 -158 0
-124 -133 0
-124 -157 0
-124 -132 0
-133 -158 0
-157 -158 0
-132 -158 0
-133 -157 0
-132 -133 0
-132 -157 0
-110 -252 0
-85 -252 0
-175 -252 0
-64 -252 0
-104 -252 0
-85 -110 0
-110 -175 0
-64 -110 0
-104 -110 0
-85 -175 0
-64 -85 0
-85 -104 0
-64 -175 0
-104 -175 0
-64 -104 0
-119 -273 0
-232 -274 0
-121 -274 0
-233 -274 0
-121 -232 0
-232 -233 0
-121 -233 0
-126 -249 0
-90 -249 0
-74 -249 0
-90 -126 0
-74 -126 0
-74 -90 0
-237 -278 0
-252 -278 0
-119 -278 0
-237 -252 0
-119 -237 0
-119 -252 0
-124 -271 0
-110 -271 0
-271 -273 0
-110 -124 0
-124 -273 0
-110 -273 0
-158 -270 0
-85 -270 0
-270 -274 0
-249 -270 0
-85 -158 0
-158 -274 0
-158 -249 0
-85 -274 0
-85 -249 0
-249 -274 0
-133 -153 0
-153 -175 0
-153 -232 0
-126 -153 0
-133 -175 0
-133 -232 0
-126 -133 0
-175 -232 0
-126 -175 0
-126 -232 0
-47 -157 0
-47 -64 0
-47 -121 0
-47 -90 0
-64 -157 0
-121 -157 0
-90 -157 0
-64 -121 0
-64 -90 0
-90 -121 0
-45 -132 0
-45 -104 0
-45 -233 0
-45 -74 0
-104 -132 0
-132 -233 0
-74 -132 0
-104 -233 0
-74 -104 0
-74 -233 0
-40 -163 0
-163 -275 0
-163 -246 0
-150 -163 0
-79 -163 0
-40 -275 0
-40 -246 0
-40 -150 0
-40 -79 0
-246 -275 0
-150 -275 0
-79 -275 0
-150 -246 0
-79 -246 0
-79 -150 0
-149 -248 0
-73 -248 0
-183 -248 0
-63 -248 0
-58 -248 0
-73 -149 0
-149 -183 0
-63 -149 0
-58 -149 0
-73 -183 0
-63 -73 0
-58 -73 0
-63 -183 0
-58 -183 0
-58 -63 0
-84 -101 0
-42 -84 0
-84 -141 0
-84 -155 0
-84 -180 0
-42 -101 0
-101 -141 0
-101 -155 0
-101 -180 0
-42 -141 0
-42 -155 0
-42 -180 0
-141 -155 0
-141 -180 0
-155 -180 0
-30 -80 0
-80 -194 0
-80 -276 0
-80 -200 0
-80 -204 0
-30 -194 0
-30 -276 0
-30 -200 0
-30 -204 0
-194 -276 0
-194 -200 0
-194 -204 0
-200 -276 0
-204 -276 0
-200 -204 0
-206 -277 0
-54 -206 0
-117 -206 0
-206 -279 0
-206 -272 0
-154 -206 0
-54 -277 0
-117 -277 0
-277 -279 0
-272 -277 0
-154 -277 0
-54 -117 0
-54 -279 0
-54 -272 0
-54 -154 0
-117 -279 0
-117 -272 0
-117 -154 0
-272 -279 0
-154 -279 0
-154 -272 0
-219 -269 0
-152 -219 0
-178 -219 0
-219 -238 0
-125 -219 0
-93 -219 0
-152 -269 0
-178 -269 0
-238 -269 0
-125 -269 0
-93 -269 0
-152 -178 0
-152 -238 0
-125 -152 0
-93 -152 0
-178 -238 0
-125 -178 0
-93 -178 0
-125 -238 0
-93 -238 0
-93 -125 0
-159 -189 0
-134 -189 0
-189 -193 0
-189 -253 0
-109 -189 0
-176 -189 0
-134 -159 0
-159 -193 0
-159 -253 0
-109 -159 0
-159 -176 0
-134 -193 0
-134 -253 0
-109 -134 0
-134 -176 0
-193 -253 0
-109 -193 0
-176 -193 0
-109 -253 0
-176 -253 0
-109 -176 0
-163 -248 0
-84 -163 0
-80 -163 0
-163 -206 0
-163 -219 0
-163 -189 0
-84 -248 0
-80 -248 0
-206 -248 0
-219 -248 0
-189 -248 0
-80 -84 0
-84 -206 0
-84 -219 0
-84 -189 0
-80 -206 0
-80 -219 0
-80 -189 0
-206 -219 0
-189 -206 0
-189 -219 0
-40 -149 0
-40 -101 0
-30 -40 0
-40 -277 0
-40 -269 0
-40 -159 0
-101 -149 0
-30 -149 0
-149 -277 0
-149 -269 0
-149 -159 0
-30 -101 0
-101 -277 0
-101 -269 0
-101 -159 0
-30 -277 0
-30 -269 0
-30 -159 0
-269 -277 0
-159 -277 0
-159 -269 0
-73 -275 0
-42 -275 0
-194 -275 0
-54 -275 0
-152 -275 0
-134 -275 0
-42 -73 0
-73 -194 0
-54 -73 0
-73 -152 0
-73 -134 0
-42 -194 0
-42 -54 0
-42 -152 0
-42 -134 0
-54 -194 0
-152 -194 0
-134 -194 0
-54 -152 0
-54 -134 0
-134 -152 0
-117 -178 0
-117 -193 0
-178 -193 0
-183 -246 0
-141 -246 0
-246 -276 0
-246 -279 0
-238 -246 0
-246 -253 0
-141 -183 0
-183 -276 0
-183 -279 0
-183 -238 0
-183 -253 0
-141 -276 0
-141 -279 0
-141 -238 0
-141 -253 0
-276 -279 0
-238 -276 0
-253 -276 0
-238 -279 0
-253 -279 0
-238 -253 0
-63 -150 0
-150 -155 0
-150 -200 0
-150 -272 0
-125 -150 0
-109 -150 0
-63 -155 0
-63 -200 0
-63 -272 0
-63 -125 0
-63 -109 0
-155 -200 0
-155 -272 0
-125 -155 0
-109 -155 0
-200 -272 0
-125 -200 0
-109 -200 0
-125 -272 0
-109 -272 0
-109 -125 0
-58 -79 0
-79 -180 0
-79 -204 0
-79 -154 0
-79 -93 0
-79 -176 0
-58 -180 0
-58 -204 0
-58 -154 0
-58 -93 0
-58 -176 0
-180 -204 0
-154 -180 0
-93 -180 0
-176 -180 0
-154 -204 0
-93 -204 0
-176 -204 0
-93 -154 0
-154 -176 0
-93 -176 0
-129 -281 0
-129 -222 0
-129 -221 0
-222 -281 0
-221 -281 0
-221 -222 0
-70 -282 0
-162 -282 0
-62 -282 0
-70 -162 0
-62 -70 0
-62 -162 0
-83 -144 0
-144 -283 0
-57 -144 0
-122 -144 0
-83 -283 0
-57 -83 0
-83 -122 0
-57 -283 0
-122 -283 0
-57 -122 0
-28 -284 0
-284 -285 0
-115 -284 0
-199 -284 0
-28 -285 0
-28 -115 0
-28 -199 0
-115 -285 0
-199 -285 0
-115 -199 0
-56 -207 0
-207 -208 0
-207 -211 0
-207 -212 0
-56 -208 0
-56 -211 0
-56 -212 0
-208 -211 0
-208 -212 0
-211 -212 0
-81 -143 0
-143 -247 0
-143 -151 0
-78 -143 0
-81 -247 0
-81 -151 0
-78 -81 0
-151 -247 0
-78 -247 0
-78 -151 0
-144 -284 0
-144 -207 0
-143 -144 0
-207 -284 0
-143 -284 0
-143 -207 0
-28 -83 0
-56 -83 0
-81 -83 0
-28 -56 0
-28 -81 0
-56 -81 0
-129 -282 0
-129 -283 0
-129 -285 0
-129 -208 0
-129 -247 0
-282 -283 0
-282 -285 0
-208 -282 0
-247 -282 0
-283 -285 0
-208 -283 0
-247 -283 0
-208 -285 0
-247 -285 0
-208 -247 0
-70 -281 0
-57 -281 0
-115 -281 0
-211 -281 0
-151 -281 0
-57 -70 0
-70 -115 0
-70 -211 0
-70 -151 0
-57 -115 0
-57 -211 0
-57 -151 0
-115 -211 0
-115 -151 0
-151 -211 0
-162 -222 0
-122 -222 0
-199 -222 0
-212 -222 0
-78 -222 0
-122 -162 0
-162 -199 0
-162 -212 0
-78 -162 0
-122 -199 0
-122 -212 0
-78 -122 0
-199 -212 0
-78 -199 0
-78 -212 0
-62 -221 0
-118 -286 0
-102 -118 0
-118 -226 0
-102 -286 0
-226 -286 0
-102 -226 0
-35 -138 0
-35 -94 0
-35 -190 0
-94 -138 0
-138 -190 0
-94 -190 0
-51 -287 0
-48 -287 0
-128 -287 0
-258 -287 0
-48 -51 0
-51 -128 0
-51 -258 0
-48 -128 0
-48 -258 0
-128 -258 0
-26 -77 0
-26 -98 0
-26 -196 0
-26 -72 0
-77 -98 0
-77 -196 0
-72 -77 0
-98 -196 0
-72 -98 0
-72 -196 0
-24 -25 0
-25 -209 0
-25 -165 0
-25 -213 0
-24 -209 0
-24 -165 0
-24 -213 0
-165 -209 0
-209 -213 0
-165 -213 0
-223 -280 0
-225 -280 0
-220 -280 0
-38 -280 0
-223 -225 0
-220 -223 0
-38 -223 0
-220 -225 0
-38 -225 0
-38 -220 0
-26 -287 0
-25 -287 0
-280 -287 0
-25 -26 0
-26 -280 0
-25 -280 0
-51 -77 0
-24 -51 0
-51 -223 0
-24 -77 0
-77 -223 0
-24 -223 0
-35 -118 0
-48 -118 0
-98 -118 0
-118 -209 0
-118 -225 0
-35 -48 0
-35 -98 0
-35 -209 0
-35 -225 0
-48 -98 0
-48 -209 0
-48 -225 0
-98 -209 0
-98 -225 0
-209 -225 0
-138 -286 0
-128 -286 0
-196 -286 0
-165 -286 0
-220 -286 0
-128 -138 0
-138 -196 0
-138 -165 0
-138 -220 0
-128 -196 0
-128 -165 0
-128 -220 0
-165 -196 0
-196 -220 0
-165 -220 0
-94 -102 0
-102 -258 0
-72 -102 0
-102 -213 0
-38 -102 0
-94 -258 0
-72 -94 0
-94 -213 0
-38 -94 0
-72 -258 0
-213 -258 0
-38 -258 0
-72 -213 0
-38 -72 0
-38 -213 0
-190 -226 0
-136 -243 0
-88 -136 0
-88 -243 0
-23 -254 0
-67 -254 0
-23 -67 0
-22 -205 0
-210 -215 0
-21 -210 0
-103 -210 0
-21 -215 0
-103 -215 0
-21 -103 0
-60 -227 0
-36 -227 0
-20 -227 0
-36 -60 0
-20 -60 0
-20 -36 0
-136 -254 0
-23 -243 0
-210 -243 0
-227 -243 0
-23 -210 0
-23 -227 0
-210 -227 0
-67 -88 0
-88 -215 0
-60 -88 0
-67 -215 0
-60 -67 0
-60 -215 0
-21 -22 0
-22 -36 0
-21 -36 0
-103 -205 0
-20 -205 0
-20 -103 0
-147 -166 0
-147 -161 0
-116 -147 0
-19 -147 0
-147 -235 0
-161 -166 0
-116 -166 0
-19 -166 0
-166 -235 0
-116 -161 0
-19 -161 0
-161 -235 0
-19 -116 0
-116 -235 0
-19 -235 0
-185 -239 0
-17 -239 0
-179 -239 0
-239 -250 0
-32 -239 0
-17 -185 0
-179 -185 0
-185 -250 0
-32 -185 0
-17 -179 0
-17 -250 0
-17 -32 0
-179 -250 0
-32 -179 0
-32 -250 0
-15 -53 0
-50 -53 0
-14 -53 0
-13 -53 0
-12 -53 0
-46 -53 0
-15 -50 0
-14 -15 0
-13 -15 0
-12 -15 0
-15 -46 0
-14 -50 0
-13 -50 0
-12 -50 0
-46 -50 0
-13 -14 0
-12 -14 0
-14 -46 0
-12 -13 0
-13 -46 0
-12 -46 0
-11 -44 0
-41 -44 0
-44 -123 0
-44 -92 0
-44 -188 0
-10 -44 0
-11 -41 0
-11 -123 0
-11 -92 0
-11 -188 0
-10 -11 0
-41 -123 0
-41 -92 0
-41 -188 0
-10 -41 0
-92 -123 0
-123 -188 0
-10 -123 0
-92 -188 0
-10 -92 0
-10 -188 0
-9 -192 0
-9 -111 0
-9 -86 0
-8 -9 0
-9 -202 0
-9 -65 0
-111 -192 0
-86 -192 0
-8 -192 0
-192 -202 0
-65 -192 0
-86 -111 0
-8 -111 0
-111 -202 0
-65 -111 0
-8 -86 0
-86 -202 0
-65 -86 0
-8 -202 0
-8 -65 0
-65 -202 0
-7 -105 0
-6 -105 0
-5 -105 0
-4 -105 0
-105 -216 0
-6 -7 0
-5 -7 0
-4 -7 0
-7 -216 0
-5 -6 0
-4 -6 0
-6 -216 0
-4 -5 0
-5 -216 0
-4 -216 0
-244 -245 0
-87 -244 0
-244 -255 0
-3 -244 0
-68 -244 0
-87 -245 0
-245 -255 0
-3 -245 0
-68 -245 0
-87 -255 0
-3 -87 0
-68 -87 0
-3 -255 0
-68 -255 0
-3 -68 0
-147 -239 0
-53 -147 0
-44 -147 0
-9 -147 0
-105 -147 0
-147 -244 0
-53 -239 0
-44 -239 0
-9 -239 0
-105 -239 0
-239 -244 0
-44 -53 0
-9 -53 0
-53 -105 0
-53 -244 0
-9 -44 0
-44 -105 0
-44 -244 0
-9 -105 0
-9 -244 0
-105 -244 0
-166 -185 0
-15 -166 0
-11 -166 0
-166 -192 0
-7 -166 0
-166 -245 0
-15 -185 0
-11 -185 0
-185 -192 0
-7 -185 0
-185 -245 0
-11 -15 0
-15 -192 0
-7 -15 0
-15 -245 0
-11 -192 0
-7 -11 0
-11 -245 0
-7 -192 0
-192 -245 0
-7 -245 0
-17 -161 0
-50 -161 0
-41 -161 0
-111 -161 0
-6 -161 0
-87 -161 0
-17 -50 0
-17 -41 0
-17 -111 0
-6 -17 0
-17 -87 0
-41 -50 0
-50 -111 0
-6 -50 0
-50 -87 0
-41 -111 0
-6 -41 0
-41 -87 0
-6 -111 0
-87 -111 0
-6 -87 0
-14 -123 0
-14 -86 0
-86 -123 0
-116 -179 0
-13 -116 0
-92 -116 0
-8 -116 0
-5 -116 0
-116 -255 0
-13 -179 0
-92 -179 0
-8 -179 0
-5 -179 0
-179 -255 0
-13 -92 0
-8 -13 0
-5 -13 0
-13 -255 0
-8 -92 0
-5 -92 0
-92 -255 0
-5 -8 0
-8 -255 0
-5 -255 0
-19 -250 0
-12 -19 0
-19 -188 0
-19 -202 0
-4 -19 0
-3 -19 0
-12 -250 0
-188 -250 0
-202 -250 0
-4 -250 0
-3 -250 0
-12 -188 0
-12 -202 0
-4 -12 0
-3 -12 0
-188 -202 0
-4 -188 0
-3 -188 0
-4 -202 0
-3 -202 0
-3 -4 0
-32 -235 0
-46 -235 0
-10 -235 0
-65 -235 0
-216 -235 0
-68 -235 0
-32 -46 0
-10 -32 0
-32 -65 0
-32 -216 0
-32 -68 0
-10 -46 0
-46 -65 0
-46 -216 0
-46 -68 0
-10 -65 0
-10 -216 0
-10 -68 0
-65 -216 0
-65 -68 0
-68 -216 0
-140 -172 0
-140 -145 0
-99 -140 0
-95 -140 0
-82 -140 0
-145 -172 0
-99 -172 0
-95 -172 0
-82 -172 0
-99 -145 0
-95 -145 0
-82 -145 0
-95 -99 0
-82 -99 0
-82 -95 0
-2 -182 0
-139 -182 0
-148 -182 0
-167 -182 0
-29 -182 0
-2 -139 0
-2 -148 0
-2 -167 0
-2 -29 0
-139 -148 0
-139 -167 0
-29 -139 0
-148 -167 0
-29 -148 0
-29 -167 0
-1 -114 0
-1 -100 0
-1 -181 0
-1 -184 0
-1 -55 0
-100 -114 0
-114 -181 0
-114 -184 0
-55 -114 0
-100 -181 0
-100 -184 0
-55 -100 0
-181 -184 0
-55 -181 0
-55 -184 0
-39 -43 0
-18 -236 0
-18 -240 0
-16 -18 0
-236 -240 0
-16 -236 0
-16 -240 0
-31 -251 0
-251 -256 0
-201 -251 0
-31 -256 0
-31 -201 0
-201 -256 0
-140 -182 0
-1 -140 0
-43 -140 0
-1 -182 0
-43 -182 0
-1 -43 0
-2 -172 0
-114 -172 0
-39 -172 0
-2 -114 0
-2 -39 0
-39 -114 0
-139 -145 0
-100 -145 0
-18 -145 0
-145 -251 0
-100 -139 0
-18 -139 0
-139 -251 0
-18 -100 0
-100 -251 0
-18 -251 0
-99 -148 0
-99 -181 0
-99 -236 0
-31 -99 0
-148 -181 0
-148 -236 0
-31 -148 0
-181 -236 0
-31 -181 0
-31 -236 0
-95 -167 0
-95 -184 0
-95 -240 0
-95 -256 0
-167 -184 0
-167 -240 0
-167 -256 0
-184 -240 0
-184 -256 0
-240 -256 0
-29 -82 0
-55 -82 0
-16 -82 0
-82 -201 0
-29 -55 0
-16 -29 0
-29 -201 0
-16 -55 0
-55 -201 0
-16 -201 0
-49 -52 0
-52 -131 0
-52 -230 0
-52 -76 0
-52 -97 0
-49 -131 0
-49 -230 0
-49 -76 0
-49 -97 0
-131 -230 0
-76 -131 0
-97 -131 0
-76 -230 0
-97 -230 0
-76 -97 0
-160 -187 0
-177 -187 0
-187 -234 0
-187 -264 0
-75 -187 0
-160 -177 0
-160 -234 0
-160 -264 0
-75 -160 0
-177 -234 0
-177 -264 0
-75 -177 0
-234 -264 0
-75 -234 0
-75 -264 0
-271 -278 0
-237 -278 0
-124 -278 0
-252 -278 0
-110 -278 0
-237 -271 0
-124 -271 0
-252 -271 0
-110 -271 0
-124 -237 0
-237 -252 0
-110 -237 0
-124 -252 0
-110 -124 0
-110 -252 0
-40 -163 0
-163 -275 0
-163 -248 0
-149 -163 0
-73 -163 0
-40 -275 0
-40 -248 0
-40 -149 0
-40 -73 0
-248 -275 0
-149 -275 0
-73 -275 0
-149 -248 0
-73 -248 0
-73 -149 0
-136 -254 0
-147 -166 0
-147 -161 0
-147 -239 0
-147 -185 0
-17 -147 0
-161 -166 0
-166 -239 0
-166 -185 0
-17 -166 0
-161 -239 0
-161 -185 0
-17 -161 0
-185 -239 0
-17 -239 0
-17 -185 0
-140 -172 0
-140 -182 0
-2 -140 0
-1 -140 0
-114 -140 0
-172 -182 0
-2 -172 0
-1 -172 0
-114 -172 0
-2 -182 0
-1 -182 0
-114 -182 0
-1 -2 0
-2 -114 0
-1 -114 0
-217 -257 0
-217 -241 0
-186 -217 0
-197 -217 0
-71 -217 0
-241 -257 0
-186 -257 0
-197 -257 0
-71 -257 0
-186 -241 0
-197 -241 0
-71 -241 0
-186 -197 0
-71 -186 0
-71 -197 0
-135 -263 0
-112 -135 0
-106 -135 0
-120 -135 0
-135 -142 0
-135 -265 0
-89 -135 0
-69 -135 0
-112 -263 0
-106 -263 0
-120 -263 0
-142 -263 0
-263 -265 0
-89 -263 0
-69 -263 0
-106 -112 0
-112 -120 0
-112 -142 0
-112 -265 0
-89 -112 0
-69 -112 0
-106 -120 0
-106 -142 0
-106 -265 0
-89 -106 0
-69 -106 0
-120 -142 0
-120 -265 0
-89 -120 0
-69 -120 0
-142 -265 0
-89 -142 0
-69 -142 0
-89 -265 0
-69 -265 0
-69 -89 0
-153 -270 0
-158 -270 0
-133 -270 0
-85 -270 0
-175 -270 0
-153 -158 0
-133 -153 0
-85 -153 0
-153 -175 0
-133 -158 0
-85 -158 0
-158 -175 0
-85 -133 0
-133 -175 0
-85 -175 0
-129 -281 0
-129 -222 0
-129 -282 0
-70 -129 0
-129 -162 0
-222 -281 0
-281 -282 0
-70 -281 0
-162 -281 0
-222 -282 0
-70 -222 0
-162 -222 0
-70 -282 0
-162 -282 0
-70 -162 0
-118 -286 0
-102 -118 0
-35 -118 0
-118 -138 0
-94 -118 0
-102 -286 0
-35 -286 0
-138 -286 0
-94 -286 0
-35 -102 0
-102 -138 0
-94 -102 0
-35 -138 0
-35 -94 0
-94 -138 0
-88 -243 0
-23 -243 0
-67 -243 0
-23 -88 0
-67 -88 0
-23 -67 0
-99 -145 0
-139 -145 0
-145 -148 0
-100 -145 0
-145 -181 0
-99 -139 0
-99 -148 0
-99 -100 0
-99 -181 0
-139 -148 0
-100 -139 0
-139 -181 0
-100 -148 0
-148 -181 0
-100 -181 0
-228 -260 0
-174 -260 0
-170 -260 0
-66 -260 0
-61 -260 0
-174 -228 0
-170 -228 0
-66 -228 0
-61 -228 0
-170 -174 0
-66 -174 0
-61 -174 0
-66 -170 0
-61 -170 0
-61 -66 0
-168 -231 0
-156 -168 0
-127 -168 0
-130 -168 0
-108 -168 0
-156 -231 0
-127 -231 0
-130 -231 0
-108 -231 0
-127 -156 0
-130 -156 0
-108 -156 0
-127 -130 0
-108 -127 0
-108 -130 0
-45 -47 0
-47 -157 0
-47 -132 0
-47 -64 0
-47 -104 0
-45 -157 0
-45 -132 0
-45 -64 0
-45 -104 0
-132 -157 0
-64 -157 0
-104 -157 0
-64 -132 0
-104 -132 0
-64 -104 0
-150 -246 0
-79 -246 0
-183 -246 0
-63 -246 0
-58 -246 0
-79 -150 0
-150 -183 0
-63 -150 0
-58 -150 0
-79 -183 0
-63 -79 0
-58 -79 0
-63 -183 0
-58 -183 0
-58 -63 0
-62 -221 0
-190 -226 0
-19 -116 0
-116 -235 0
-116 -179 0
-116 -250 0
-32 -116 0
-19 -235 0
-19 -179 0
-19 -250 0
-19 -32 0
-179 -235 0
-235 -250 0
-32 -235 0
-179 -250 0
-32 -179 0
-32 -250 0
-82 -95 0
-95 -167 0
-29 -95 0
-95 -184 0
-55 -95 0
-82 -167 0
-29 -82 0
-82 -184 0
-55 -82 0
-29 -167 0
-167 -184 0
-55 -167 0
-29 -184 0
-29 -55 0
-55 -184 0
-119 -273 0
-84 -101 0
-42 -84 0
-80 -84 0
-30 -84 0
-84 -194 0
-42 -101 0
-80 -101 0
-30 -101 0
-101 -194 0
-42 -80 0
-30 -42 0
-42 -194 0
-30 -80 0
-80 -194 0
-30 -194 0
-83 -144 0
-144 -284 0
-28 -144 0
-83 -284 0
-28 -83 0
-28 -284 0
-51 -287 0
-26 -287 0
-77 -287 0
-26 -51 0
-51 -77 0
-26 -77 0
-15 -53 0
-50 -53 0
-44 -53 0
-11 -53 0
-41 -53 0
-9 -53 0
-53 -192 0
-53 -111 0
-15 -50 0
-15 -44 0
-11 -15 0
-15 -41 0
-9 -15 0
-15 -192 0
-15 -111 0
-44 -50 0
-11 -50 0
-41 -50 0
-9 -50 0
-50 -192 0
-50 -111 0
-11 -44 0
-41 -44 0
-9 -44 0
-44 -192 0
-44 -111 0
-11 -41 0
-9 -11 0
-11 -192 0
-11 -111 0
-9 -41 0
-41 -192 0
-41 -111 0
-9 -192 0
-9 -111 0
-111 -192 0
-39 -43 0
-164 -214 0
-164 -261 0
-37 -164 0
-214 -261 0
-37 -214 0
-37 -261 0
-59 -266 0
-34 -266 0
-266 -267 0
-195 -266 0
-198 -266 0
-34 -59 0
-59 -267 0
-59 -195 0
-59 -198 0
-34 -267 0
-34 -195 0
-34 -198 0
-195 -267 0
-198 -267 0
-195 -198 0
-57 -283 0
-122 -283 0
-283 -285 0
-115 -283 0
-199 -283 0
-57 -122 0
-57 -285 0
-57 -115 0
-57 -199 0
-122 -285 0
-115 -122 0
-122 -199 0
-115 -285 0
-199 -285 0
-115 -199 0
-48 -128 0
-48 -258 0
-48 -98 0
-48 -196 0
-48 -72 0
-128 -258 0
-98 -128 0
-128 -196 0
-72 -128 0
-98 -258 0
-196 -258 0
-72 -258 0
-98 -196 0
-72 -98 0
-72 -196 0
-14 -123 0
-14 -86 0
-86 -123 0
-107 -113 0
-33 -107 0
-107 -262 0
-33 -113 0
-113 -262 0
-33 -262 0
-137 -191 0
-137 -268 0
-137 -203 0
-191 -268 0
-191 -203 0
-203 -268 0
-141 -155 0
-141 -180 0
-141 -276 0
-141 -200 0
-141 -204 0
-155 -180 0
-155 -276 0
-155 -200 0
-155 -204 0
-180 -276 0
-180 -200 0
-180 -204 0
-200 -276 0
-204 -276 0
-200 -204 0
-22 -205 0
-12 -13 0
-13 -46 0
-13 -92 0
-13 -188 0
-10 -13 0
-8 -13 0
-13 -202 0
-13 -65 0
-12 -46 0
-12 -92 0
-12 -188 0
-10 -12 0
-8 -12 0
-12 -202 0
-12 -65 0
-46 -92 0
-46 -188 0
-10 -46 0
-8 -46 0
-46 -202 0
-46 -65 0
-92 -188 0
-10 -92 0
-8 -92 0
-92 -202 0
-65 -92 0
-10 -188 0
-8 -188 0
-188 -202 0
-65 -188 0
-8 -10 0
-10 -202 0
-10 -65 0
-8 -202 0
-8 -65 0
-65 -202 0
-96 -146 0
-91 -218 0
-218 -242 0
-171 -218 0
-91 -242 0
-91 -171 0
-171 -242 0
-206 -277 0
-54 -206 0
-206 -219 0
-206 -269 0
-152 -206 0
-189 -206 0
-159 -206 0
-134 -206 0
-54 -277 0
-219 -277 0
-269 -277 0
-152 -277 0
-189 -277 0
-159 -277 0
-134 -277 0
-54 -219 0
-54 -269 0
-54 -152 0
-54 -189 0
-54 -159 0
-54 -134 0
-219 -269 0
-152 -219 0
-189 -219 0
-159 -219 0
-134 -219 0
-152 -269 0
-189 -269 0
-159 -269 0
-134 -269 0
-152 -189 0
-152 -159 0
-134 -152 0
-159 -189 0
-134 -189 0
-134 -159 0
-56 -207 0
-143 -207 0
-81 -207 0
-56 -143 0
-56 -81 0
-81 -143 0
-24 -25 0
-25 -280 0
-25 -223 0
-24 -280 0
-24 -223 0
-223 -280 0
-7 -105 0
-6 -105 0
-105 -244 0
-105 -245 0
-87 -105 0
-6 -7 0
-7 -244 0
-7 -245 0
-7 -87 0
-6 -244 0
-6 -245 0
-6 -87 0
-244 -245 0
-87 -244 0
-87 -245 0
-224 -259 0
-224 -229 0
-27 -224 0
-173 -224 0
-169 -224 0
-229 -259 0
-27 -259 0
-173 -259 0
-169 -259 0
-27 -229 0
-173 -229 0
-169 -229 0
-27 -173 0
-27 -169 0
-169 -173 0
-232 -274 0
-249 -274 0
-126 -274 0
-232 -249 0
-126 -232 0
-126 -249 0
-117 -178 0
-117 -193 0
-178 -193 0
-208 -211 0
-208 -212 0
-208 -247 0
-151 -208 0
-78 -208 0
-211 -212 0
-211 -247 0
-151 -211 0
-78 -211 0
-212 -247 0
-151 -212 0
-78 -212 0
-151 -247 0
-78 -247 0
-78 -151 0
-165 -209 0
-209 -213 0
-209 -225 0
-209 -220 0
-38 -209 0
-165 -213 0
-165 -225 0
-165 -220 0
-38 -165 0
-213 -225 0
-213 -220 0
-38 -213 0
-220 -225 0
-38 -225 0
-38 -220 0
-210 -215 0
-210 -227 0
-60 -210 0
-215 -227 0
-60 -215 0
-60 -227 0
-18 -236 0
-18 -251 0
-18 -31 0
-236 -251 0
-31 -236 0
-31 -251 0
-121 -233 0
-90 -121 0
-74 -121 0
-90 -233 0
-74 -233 0
-74 -90 0
-272 -279 0
-154 -279 0
-238 -279 0
-125 -279 0
-93 -279 0
-253 -279 0
-109 -279 0
-176 -279 0
-154 -272 0
-238 -272 0
-125 -272 0
-93 -272 0
-253 -272 0
-109 -272 0
-176 -272 0
-154 -238 0
-125 -154 0
-93 -154 0
-154 -253 0
-109 -154 0
-154 -176 0
-125 -238 0
-93 -238 0
-238 -253 0
-109 -238 0
-176 -238 0
-93 -125 0
-125 -253 0
-109 -125 0
-125 -176 0
-93 -253 0
-93 -109 0
-93 -176 0
-109 -253 0
-176 -253 0
-109 -176 0
-21 -103 0
-21 -36 0
-20 -21 0
-36 -103 0
-20 -103 0
-20 -36 0
-4 -5 0
-5 -216 0
-5 -255 0
-3 -5 0
-5 -68 0
-4 -216 0
-4 -255 0
-3 -4 0
-4 -68 0
-216 -255 0
-3 -216 0
-68 -216 0
-3 -255 0
-68 -255 0
-3 -68 0
-16 -240 0
-240 -256 0
-201 -240 0
-16 -256 0
-16 -201 0
-201 -256 0
